(set-info :origin "driver benchmark extracted from Microsoft SDV")
(set-logic HORN)
(declare-fun Proc4 (Int Bool Int Int) Bool)
(declare-fun Proc7 (Int Bool Int Int Int Int) Bool)
(declare-fun Proc22 (Int Bool) Bool)
(declare-fun Proc16 (Int Bool) Bool)
(declare-fun Proc9 (Int Bool Int) Bool)
(declare-fun Proc11 (Int Bool Int Int Int) Bool)
(declare-fun Proc12 (Int Bool Int) Bool)
(declare-fun Proc8 (Int Bool Int Int Int Int) Bool)
(declare-fun Proc24 (Int Bool) Bool)
(declare-fun Proc20 (Int Bool Int Bool Int) Bool)
(declare-fun Proc14 (Int Bool Int) Bool)
(declare-fun Proc13 (Int Bool Int Int Int) Bool)
(declare-fun Proc10 (Int Bool Int Int Int Int) Bool)
(declare-fun Proc0 (Int Bool Int Int Int Int) Bool)
(declare-fun Proc2 (Int Bool) Bool)
(declare-fun Proc17 (Int Bool) Bool)
(declare-fun Proc15 (Int Bool) Bool)
(declare-fun Proc19 (Int Bool Int) Bool)
(declare-fun Proc23 (Int Bool Int Int Int Int) Bool)
(declare-fun Proc1 (Int Bool Int) Bool)
(declare-fun Proc18 (Int Bool Int) Bool)
(declare-fun Proc25 (Int Bool Int Bool Int) Bool)
(declare-fun Proc5 (Int Bool Int Int Int Int Int Int Int Int) Bool)
(declare-fun Proc21 (Int Bool) Bool)
(declare-fun Proc3 (Int Bool Int Int) Bool)
(declare-fun Proc6 (Int Bool Int Int) Bool)
(assert (forall ((A Int)
         (B Int)
         (C Int)
         (D Int)
         (E Int)
         (F Int)
         (G Int)
         (H Int)
         (I Int)
         (J Int)
         (K Int)
         (L Int)
         (M Int)
         (N Int)
         (O Bool))
  (let ((a!1 (and (not (<= L (+ 1 N))) (not (<= L M))))
        (a!2 (and (not (<= J (+ 1 K))) (not (<= J L)))))
  (let ((a!3 (or (not O)
                 (not (= N M))
                 (not a!1)
                 (not (= K L))
                 (not a!2)
                 (= I 0)
                 (<= H 27)
                 (= G 0)
                 (= F 0)
                 (= E 0)
                 (not (= D 0))
                 (not (and (= C D) (= B J))))))
    (=> (not a!3) (Proc0 M O I A C B))))))
(assert (forall ((A Int)
         (B Int)
         (C Int)
         (D Int)
         (E Int)
         (F Int)
         (G Int)
         (H Int)
         (I Int)
         (J Int)
         (K Int)
         (L Int)
         (M Int)
         (N Int)
         (O Bool)
         (P Int)
         (Q Int)
         (R Int)
         (S Int)
         (T Int)
         (U Int)
         (V Int)
         (W Int)
         (X Int)
         (Y Int)
         (Z Int)
         (A1 Int)
         (B1 Int)
         (C1 Int)
         (D1 Int)
         (E1 Int)
         (F1 Int)
         (G1 Int)
         (H1 Int)
         (I1 Int))
  (let ((a!1 (and (not (<= G1 (+ 4 I1))) (not (<= G1 H1))))
        (a!2 (and (not (<= E1 (+ 1 F1))) (not (<= E1 G1))))
        (a!3 (not (Proc5 E1 O W 44 0 Y 256 0 I1 V)))
        (a!4 (and (not (<= R (+ 1 S))) (not (<= R T))))
        (a!6 (or (not (and (= P G) (= N H))) (not (and (= M P) (= L N)))))
        (a!7 (not (and (not (= K 0))
                       (= D (+ 20 K))
                       (= C (- 328645036))
                       (Proc8 H O D C 1 100)))))
  (let ((a!5 (or (<= 0 V)
                 (not (and (= U V) (= T E1)))
                 (not (= S T))
                 (not a!4)
                 (not (Proc6 R O S Q))
                 (not (and (= P U) (= N Q)))
                 (not (and (= M P) (= L N)))))
        (a!8 (or (= K 0)
                 (= F 0)
                 (= E 0)
                 a!7
                 (not (and (= U 0) (= T H)))
                 (not (= S T))
                 (not a!4)
                 (not (Proc6 R O S Q))
                 (not (and (= P U) (= N Q)))
                 (not (and (= M P) (= L N)))))
        (a!9 (or (not (Proc9 H O B))
                 (not (= A (- 1073741823)))
                 (not (and (= U A) (= T H)))
                 (not (= S T))
                 (not a!4)
                 (not (Proc6 R O S Q))
                 (not (and (= P U) (= N Q)))
                 (not (and (= M P) (= L N))))))
  (let ((a!10 (or (not (<= 0 V))
                  (= K 0)
                  (not (Proc7 E1 O J C1 I H))
                  (and a!6 (or (= K 0) (and a!8 a!9))))))
  (let ((a!11 (or (not (and (= D1 0) (= Y 34))) a!3 (and a!5 a!10))))
  (let ((a!12 (and (or (= D1 0)
                       (not (Proc3 E1 O C1 B1))
                       (not (Proc4 E1 O A1 Z))
                       (not (= Y X))
                       a!3
                       (and a!5 a!10))
                   a!11)))
  (let ((a!13 (not (or (not O)
                       (not (= I1 H1))
                       (not a!1)
                       (not (= F1 G1))
                       (not a!2)
                       (not (Proc1 E1 O F1))
                       (not (Proc2 E1 O))
                       a!12))))
    (=> a!13 (Proc10 H1 O W C1 M L))))))))))
(assert (forall ((A Int)
         (B Int)
         (C Int)
         (D Int)
         (E Int)
         (F Int)
         (G Int)
         (H Int)
         (I Int)
         (J Int)
         (O Bool))
  (let ((a!1 (and (not (<= H (+ 1 J))) (not (<= H I))))
        (a!2 (or (not (= E D)) (not (and (= C E) (= B F)))))
        (a!3 (or (not (= E 0)) (not (and (= C E) (= B F)))))
        (a!4 (or (not (= E G)) (not (and (= C E) (= B F))))))
  (let ((a!5 (not (or (not O)
                      (not (= J I))
                      (not a!1)
                      (not (Proc11 H O J G F))
                      (and a!2 a!3 a!4)))))
    (=> a!5 (Proc7 I O A G C B))))))
(assert (forall ((A Int)
         (B Int)
         (C Int)
         (D Int)
         (E Int)
         (F Int)
         (G Int)
         (H Int)
         (I Int)
         (J Int)
         (K Int)
         (L Int)
         (M Int)
         (N Int)
         (O Bool))
  (let ((a!1 (not (and (= K (- 1073741823)) (= M K))))
        (a!2 (not (and (= J (- 1073741670)) (= M J))))
        (a!3 (not (and (= I (- 1073741771)) (= M I))))
        (a!4 (not (and (= H (- 1073741824)) (= M H)))))
  (let ((a!5 (and (or (= N 0) (not (= M 0)) (not (= L M)))
                  (or (= N 0) a!1 (not (= L M)))
                  (or (= N 0) a!2 (not (= L M)))
                  (or (= N 0) a!3 (not (= L M)))
                  (or (= N 0) a!4 (not (= L M))))))
    (=> (not (or (not O) a!5)) (Proc5 G O F E D C B A N L))))))
(assert (forall ((A Int) (B Int) (O Bool)) (=> O (Proc9 B O A))))
(assert (forall ((A Int) (B Int) (C Int) (D Int) (O Bool))
  (let ((a!1 (not (or (not O) (not (= D C))))))
    (=> a!1 (Proc3 B O A D)))))
(assert (forall ((A Int) (B Int) (C Int) (D Int) (E Int) (F Int) (O Bool))
  (let ((a!1 (and (not (<= D (+ 1 F))) (not (<= D E)))))
  (let ((a!2 (not (or (not O)
                      (not (= F E))
                      (not a!1)
                      (not (Proc12 D O F))
                      (not (= C D))))))
    (=> a!2 (Proc13 E O B A C))))))
(assert (forall ((A Int) (B Int) (O Bool)) (=> O (Proc12 B O A))))
(assert (forall ((A Int) (B Int) (O Bool)) (=> false (Proc14 B O A))))
(assert (forall ((A Int) (B Int) (O Bool)) (=> O (Proc1 B O A))))
(assert (forall ((A Int) (B Int) (C Int) (D Int) (E Int) (O Bool))
  (let ((a!1 (and (not (<= C (+ 1 E))) (not (<= C D)))))
  (let ((a!2 (not (or (not O)
                      (not (= E D))
                      (not a!1)
                      (not (Proc14 C O E))
                      (not (= B C))))))
    (=> a!2 (Proc6 D O A B))))))
(assert (forall ((A Int) (B Int) (C Int) (D Int) (E Int) (F Int) (O Bool))
  (let ((a!1 (and (or (not (= F E)) (not (= D F)))
                  (or (not (Proc13 E O C B A)) (not (= F A)) (not (= D F))))))
    (=> (not (or (not O) a!1)) (Proc11 E O C B D)))))
(assert (forall ((A Int) (O Bool)) (=> O (Proc15 A O))))
(assert (forall ((A Int) (O Bool)) (=> O (Proc16 A O))))
(assert (forall ((A Int) (O Bool)) (=> O (Proc17 A O))))
(assert (forall ((A Int)
         (B Int)
         (C Int)
         (D Int)
         (E Int)
         (F Int)
         (G Int)
         (H Int)
         (O Bool)
         (J1 Bool)
         (K1 Bool)
         (L1 Bool))
  (let ((a!1 (not (and (not (<= H 0)) (Proc18 H L1 G))))
        (a!2 (not (and (= C E) (= J1 K1) (= B F)))))
  (let ((a!3 (or (not (and (= E D) (not K1))) a!2))
        (a!4 (or (= (not O) L1) (not (and (= E A) (= K1 O))) a!2)))
  (let ((a!5 (not (or (not L1)
                      a!1
                      (not (Proc17 G L1))
                      (not (Proc16 G L1))
                      (not (Proc15 G L1))
                      (not (Proc19 G L1 F))
                      (and a!3 a!4)))))
    (=> a!5 (Proc20 H L1 C J1 B)))))))
(assert (forall ((A Int) (B Int) (C Int) (D Int) (E Int) (O Bool))
  (=> O (Proc8 E O D C B A))))
(assert (forall ((A Int) (B Int) (C Int) (D Int) (O Bool))
  (let ((a!1 (not (or (not O) (not (= D C))))))
    (=> a!1 (Proc4 B O A D)))))
(assert (forall ((A Int)
         (B Int)
         (C Int)
         (D Int)
         (E Int)
         (F Int)
         (G Int)
         (H Int)
         (I Int)
         (O Bool))
  (let ((a!1 (or (not (= D C)) (not (and (= B D) (= A E)))))
        (a!2 (or (not (Proc22 E O)) (not (= D F)) (not (and (= B D) (= A E))))))
  (let ((a!3 (not (or (not O)
                      (not (Proc21 I O))
                      (not (Proc10 I O H G F E))
                      (and a!1 a!2)))))
    (=> a!3 (Proc23 I O H G B A))))))
(assert (forall ((A Int) (O Bool)) (=> O (Proc2 A O))))
(assert (forall ((A Int)
         (B Int)
         (C Int)
         (D Int)
         (E Int)
         (F Int)
         (G Int)
         (H Int)
         (I Int)
         (J Int)
         (K Int)
         (L Int)
         (M Int)
         (O Bool))
  (let ((a!1 (and (not (<= K (+ 12 M))) (not (<= K L))))
        (a!2 (and (not (= B C))
                  (or (not (<= 0 D))
                      (not (= A 1))
                      (= A 0)
                      (not (Proc24 C O))
                      (not (= B C))))))
  (let ((a!3 (not (or (not O)
                      (not (= M L))
                      (not a!1)
                      (not (Proc0 K O J M I H))
                      (not (<= 0 I))
                      (not (= G 1))
                      (= G 0)
                      (not (Proc23 H O F E D C))
                      a!2))))
    (=> a!3 (Proc19 L O B))))))
(assert (forall ((A Int) (O Bool)) (=> O (Proc21 A O))))
(assert (forall ((A Int) (O Bool)) (=> O (Proc22 A O))))
(assert (forall ((A Int) (O Bool)) (=> O (Proc24 A O))))
(assert (forall ((A Int)
         (B Int)
         (C Int)
         (D Int)
         (E Int)
         (F Int)
         (G Int)
         (H Int)
         (I Int)
         (J Int)
         (K Int)
         (L Int)
         (M Int)
         (N Int)
         (O Bool)
         (P Int)
         (Q Int)
         (R Int)
         (S Int)
         (T Int)
         (U Int)
         (V Int)
         (W Int)
         (X Int)
         (Y Int)
         (Z Int)
         (A1 Int)
         (B1 Int)
         (C1 Int)
         (D1 Int)
         (E1 Int)
         (F1 Int)
         (G1 Int)
         (H1 Int)
         (I1 Int)
         (M1 Int)
         (N1 Int)
         (O1 Int)
         (P1 Int)
         (Q1 Int)
         (R1 Int)
         (S1 Int)
         (T1 Int)
         (U1 Int)
         (V1 Int)
         (W1 Int)
         (X1 Int)
         (Y1 Int)
         (Z1 Int)
         (A2 Int)
         (B2 Int)
         (C2 Int)
         (D2 Int))
  (let ((a!1 (and (not (<= B2 (+ 16 D2))) (not (<= B2 C2))))
        (a!2 (and (= A2 B2)
                  (not (<= Z1 (+ 4 A2)))
                  (not (<= Z1 B2))
                  (= Y1 Z1)
                  (not (<= X1 (+ 332 Y1)))
                  (not (<= X1 Z1))
                  (= W1 X1)
                  (not (<= V1 (+ 4 W1)))))
        (a!3 (and (not (<= V1 X1))
                  (= U1 V1)
                  (not (<= T1 (+ 536 U1)))
                  (not (<= T1 V1))
                  (= S1 T1)
                  (not (<= R1 (+ 240 S1)))
                  (not (<= R1 T1))
                  (= Q1 R1)
                  (not (<= P1 (+ 240 Q1)))
                  (not (<= P1 R1))
                  (= O1 P1)
                  (not (<= N1 (+ 240 O1)))
                  (not (<= N1 P1))
                  (= M1 N1)
                  (not (<= I1 (+ 4 M1)))
                  (not (<= I1 N1))
                  (= H1 I1)
                  (not (<= G1 (+ 536 H1)))
                  (not (<= G1 I1))
                  (= F1 G1)
                  (not (<= E1 (+ 332 F1)))
                  (not (<= E1 G1))
                  (= D1 E1)
                  (not (<= C1 (+ 240 D1)))
                  (not (<= C1 E1))
                  (= B1 C1)
                  (not (<= A1 (+ 240 B1)))
                  (not (<= A1 C1))
                  (= Z A1)
                  (not (<= Y (+ 332 Z)))
                  (not (<= Y A1))
                  (= X Y)
                  (not (<= W (+ 4 X)))
                  (not (<= W Y))
                  (= V W)
                  (not (<= U (+ 68 V)))
                  (not (<= U W))
                  (= T U)
                  (not (<= S (+ 240 T)))
                  (not (<= S U))
                  (= R S)
                  (not (<= Q (+ 240 R)))
                  (not (<= Q S))
                  (= P Q)
                  (not (<= N (+ 240 P)))
                  (not (<= N Q))
                  (= M N)
                  (not (<= L (+ 240 M)))
                  (not (<= L N))
                  (= K L)
                  (not (<= J (+ 240 K)))
                  (not (<= J L))
                  (= I J)
                  (not (<= H (+ 40 I)))
                  (not (<= H J))
                  (= G H)
                  (not (<= F (+ 332 G)))
                  (not (<= F H))
                  (= E F)
                  (not (<= D (+ 4 E)))
                  (not (<= D F))
                  (= C D)
                  (not (<= B (+ 40 C)))
                  (not (<= B D)))))
  (let ((a!4 (not (or (not O)
                      (not (= D2 C2))
                      (not a!1)
                      (not a!2)
                      (not a!3)
                      (not (= A B))))))
    (=> a!4 (Proc18 C2 O A))))))
(assert (forall ((A Int) (B Int) (C Int) (D Int) (E Int) (O Bool) (J1 Bool) (K1 Bool))
  (let ((a!1 (or (not K1) (not (and (Proc20 E true D J1 C) (not J1))))))
    (=> (not a!1) (Proc25 E K1 B O A)))))
(assert (let ((a!1 (exists ((V0 Int) (V1 Bool) (V2 Int) (V3 Bool) (V4 Int))
             (not (=> (and (Proc25 V0 V1 V2 V3 V4) (not false)) false)))))
  (not a!1)))

(check-sat)
